p edge 95 755
e 1 2 2
e 1 4 5
e 1 7 8
e 1 9 10
e 1 13 4
e 1 15 4
e 1 18 4
e 1 20 3
e 1 25 4
e 1 27 7
e 1 30 2
e 1 32 7
e 1 36 3
e 1 38 3
e 1 41 6
e 1 43 3
e 1 49 7
e 1 51 7
e 1 54 7
e 1 56 10
e 1 60 4
e 1 62 1
e 1 65 4
e 1 67 3
e 1 72 7
e 1 74 3
e 1 77 6
e 1 79 3
e 1 83 4
e 1 85 2
e 1 88 5
e 1 90 1
e 2 3 5
e 2 6 6
e 2 8 8
e 2 12 7
e 2 14 2
e 2 17 8
e 2 19 9
e 2 24 8
e 2 26 5
e 2 29 1
e 2 31 10
e 2 35 9
e 2 37 2
e 2 40 9
e 2 42 7
e 2 48 3
e 2 50 10
e 2 53 7
e 2 55 9
e 2 59 2
e 2 61 8
e 2 64 1
e 2 66 3
e 2 71 5
e 2 73 6
e 2 76 1
e 2 78 10
e 2 82 8
e 2 84 8
e 2 87 7
e 2 89 4
e 3 5 9
e 3 7 8
e 3 10 5
e 3 13 7
e 3 16 1
e 3 18 8
e 3 21 10
e 3 25 8
e 3 28 6
e 3 30 3
e 3 33 7
e 3 36 6
e 3 39 4
e 3 41 1
e 3 44 4
e 3 49 6
e 3 52 1
e 3 54 7
e 3 57 8
e 3 60 10
e 3 63 2
e 3 65 2
e 3 68 9
e 3 72 1
e 3 75 8
e 3 77 5
e 3 80 2
e 3 83 5
e 3 86 7
e 3 88 7
e 3 91 9
e 4 5 9
e 4 6 1
e 4 10 8
e 4 12 8
e 4 16 10
e 4 17 3
e 4 21 3
e 4 24 2
e 4 28 1
e 4 29 3
e 4 33 8
e 4 35 10
e 4 39 9
e 4 40 7
e 4 44 9
e 4 48 6
e 4 52 6
e 4 53 5
e 4 57 9
e 4 59 7
e 4 63 9
e 4 64 1
e 4 68 5
e 4 71 7
e 4 75 8
e 4 76 5
e 4 80 6
e 4 82 6
e 4 86 3
e 4 87 6
e 4 91 2
e 5 8 6
e 5 9 7
e 5 14 7
e 5 15 5
e 5 19 8
e 5 20 7
e 5 26 6
e 5 27 4
e 5 31 1
e 5 32 7
e 5 37 4
e 5 38 7
e 5 42 5
e 5 43 8
e 5 50 3
e 5 51 1
e 5 55 8
e 5 56 1
e 5 61 2
e 5 62 6
e 5 66 10
e 5 67 3
e 5 73 7
e 5 74 2
e 5 78 3
e 5 79 1
e 5 84 3
e 5 85 8
e 5 89 5
e 5 90 4
e 6 11 2
e 6 13 3
e 6 15 8
e 6 22 5
e 6 25 2
e 6 27 8
e 6 34 7
e 6 36 5
e 6 38 4
e 6 45 5
e 6 49 4
e 6 51 8
e 6 58 9
e 6 60 9
e 6 62 9
e 6 69 8
e 6 72 1
e 6 74 3
e 6 81 9
e 6 83 6
e 6 85 7
e 6 92 4
e 7 11 8
e 7 12 10
e 7 14 4
e 7 22 4
e 7 24 4
e 7 26 1
e 7 34 8
e 7 35 4
e 7 37 2
e 7 45 10
e 7 48 9
e 7 50 6
e 7 58 5
e 7 59 8
e 7 61 5
e 7 69 7
e 7 71 8
e 7 73 9
e 7 81 9
e 7 82 5
e 7 84 2
e 7 92 8
e 8 11 8
e 8 13 3
e 8 16 2
e 8 22 8
e 8 25 7
e 8 28 10
e 8 34 7
e 8 36 2
e 8 39 3
e 8 45 9
e 8 49 2
e 8 52 3
e 8 58 7
e 8 60 5
e 8 63 2
e 8 69 3
e 8 72 5
e 8 75 3
e 8 81 2
e 8 83 1
e 8 86 6
e 8 92 1
e 9 11 5
e 9 12 6
e 9 16 2
e 9 22 2
e 9 24 10
e 9 28 3
e 9 34 3
e 9 35 7
e 9 39 7
e 9 45 4
e 9 48 10
e 9 52 7
e 9 58 7
e 9 59 1
e 9 63 8
e 9 69 10
e 9 71 9
e 9 75 10
e 9 81 8
e 9 82 10
e 9 86 3
e 9 92 8
e 10 11 2
e 10 14 3
e 10 15 3
e 10 22 2
e 10 26 6
e 10 27 9
e 10 34 10
e 10 37 4
e 10 38 1
e 10 45 10
e 10 50 5
e 10 51 9
e 10 58 2
e 10 61 1
e 10 62 1
e 10 69 5
e 10 73 2
e 10 74 1
e 10 81 7
e 10 84 5
e 10 85 1
e 10 92 9
e 11 17 1
e 11 18 1
e 11 19 2
e 11 20 8
e 11 21 10
e 11 29 10
e 11 30 4
e 11 31 6
e 11 32 6
e 11 33 8
e 11 40 3
e 11 41 5
e 11 42 4
e 11 43 1
e 11 44 9
e 11 53 7
e 11 54 4
e 11 55 10
e 11 56 3
e 11 57 8
e 11 64 2
e 11 65 8
e 11 66 8
e 11 67 10
e 11 68 7
e 11 76 6
e 11 77 2
e 11 78 1
e 11 79 1
e 11 80 6
e 11 87 8
e 11 88 3
e 11 89 6
e 11 90 1
e 11 91 6
e 12 23 8
e 12 25 6
e 12 27 10
e 12 30 5
e 12 32 4
e 12 46 1
e 12 49 10
e 12 51 10
e 12 54 8
e 12 56 9
e 12 70 8
e 12 72 8
e 12 74 4
e 12 77 2
e 12 79 8
e 12 93 5
e 13 23 1
e 13 24 1
e 13 26 8
e 13 29 9
e 13 31 10
e 13 46 2
e 13 48 5
e 13 50 4
e 13 53 4
e 13 55 8
e 13 70 8
e 13 71 10
e 13 73 8
e 13 76 4
e 13 78 1
e 13 93 6
e 14 23 4
e 14 25 7
e 14 28 4
e 14 30 3
e 14 33 7
e 14 46 3
e 14 49 3
e 14 52 10
e 14 54 10
e 14 57 2
e 14 70 10
e 14 72 8
e 14 75 1
e 14 77 2
e 14 80 6
e 14 93 2
e 15 23 8
e 15 24 5
e 15 28 7
e 15 29 3
e 15 33 1
e 15 46 7
e 15 48 4
e 15 52 8
e 15 53 7
e 15 57 10
e 15 70 2
e 15 71 9
e 15 75 2
e 15 76 6
e 15 80 3
e 15 93 8
e 16 23 8
e 16 26 4
e 16 27 1
e 16 31 1
e 16 32 7
e 16 46 8
e 16 50 4
e 16 51 10
e 16 55 4
e 16 56 9
e 16 70 7
e 16 73 3
e 16 74 6
e 16 78 6
e 16 79 6
e 16 93 3
e 17 23 9
e 17 25 2
e 17 27 10
e 17 34 5
e 17 46 4
e 17 49 3
e 17 51 3
e 17 58 6
e 17 70 3
e 17 72 4
e 17 74 6
e 17 81 9
e 17 93 10
e 18 23 2
e 18 24 3
e 18 26 6
e 18 34 7
e 18 46 10
e 18 48 10
e 18 50 1
e 18 58 8
e 18 70 10
e 18 71 3
e 18 73 7
e 18 81 10
e 18 93 1
e 19 23 1
e 19 25 1
e 19 28 10
e 19 34 6
e 19 46 3
e 19 49 7
e 19 52 8
e 19 58 7
e 19 70 3
e 19 72 5
e 19 75 7
e 19 81 6
e 19 93 8
e 20 23 5
e 20 24 2
e 20 28 1
e 20 34 5
e 20 46 7
e 20 48 10
e 20 52 4
e 20 58 10
e 20 70 7
e 20 71 2
e 20 75 3
e 20 81 2
e 20 93 1
e 21 23 2
e 21 26 9
e 21 27 3
e 21 34 3
e 21 46 4
e 21 50 5
e 21 51 3
e 21 58 1
e 21 70 8
e 21 73 8
e 21 74 1
e 21 81 9
e 21 93 3
e 22 23 7
e 22 29 8
e 22 30 8
e 22 31 9
e 22 32 5
e 22 33 10
e 22 46 6
e 22 53 6
e 22 54 2
e 22 55 7
e 22 56 9
e 22 57 1
e 22 70 2
e 22 76 10
e 22 77 8
e 22 78 1
e 22 79 8
e 22 80 6
e 22 93 4
e 23 35 2
e 23 36 9
e 23 37 6
e 23 38 1
e 23 39 5
e 23 40 3
e 23 41 4
e 23 42 7
e 23 43 8
e 23 44 2
e 23 45 4
e 23 59 4
e 23 60 8
e 23 61 10
e 23 62 4
e 23 63 3
e 23 64 1
e 23 65 4
e 23 66 10
e 23 67 7
e 23 68 6
e 23 69 10
e 23 82 6
e 23 83 5
e 23 84 6
e 23 85 6
e 23 86 8
e 23 87 9
e 23 88 3
e 23 89 1
e 23 90 1
e 23 91 9
e 23 92 7
e 24 47 6
e 24 49 10
e 24 51 1
e 24 54 5
e 24 56 7
e 24 60 5
e 24 62 6
e 24 65 8
e 24 67 2
e 24 94 4
e 25 47 6
e 25 48 9
e 25 50 4
e 25 53 4
e 25 55 5
e 25 59 1
e 25 61 8
e 25 64 9
e 25 66 8
e 25 94 5
e 26 47 10
e 26 49 4
e 26 52 9
e 26 54 7
e 26 57 3
e 26 60 2
e 26 63 6
e 26 65 2
e 26 68 5
e 26 94 6
e 27 47 1
e 27 48 2
e 27 52 9
e 27 53 3
e 27 57 4
e 27 59 7
e 27 63 10
e 27 64 2
e 27 68 4
e 27 94 6
e 28 47 4
e 28 50 4
e 28 51 6
e 28 55 7
e 28 56 8
e 28 61 7
e 28 62 7
e 28 66 6
e 28 67 8
e 28 94 3
e 29 47 7
e 29 49 7
e 29 51 10
e 29 58 10
e 29 60 5
e 29 62 10
e 29 69 1
e 29 94 2
e 30 47 1
e 30 48 5
e 30 50 7
e 30 58 8
e 30 59 9
e 30 61 4
e 30 69 7
e 30 94 8
e 31 47 7
e 31 49 6
e 31 52 3
e 31 58 1
e 31 60 1
e 31 63 3
e 31 69 5
e 31 94 6
e 32 47 7
e 32 48 2
e 32 52 1
e 32 58 1
e 32 59 6
e 32 63 10
e 32 69 6
e 32 94 1
e 33 47 6
e 33 50 9
e 33 51 3
e 33 58 5
e 33 61 4
e 33 62 7
e 33 69 5
e 33 94 9
e 34 47 6
e 34 53 2
e 34 54 7
e 34 55 8
e 34 56 7
e 34 57 4
e 34 64 2
e 34 65 7
e 34 66 7
e 34 67 4
e 34 68 9
e 34 94 5
e 35 47 1
e 35 49 10
e 35 51 6
e 35 54 7
e 35 56 10
e 35 70 6
e 35 94 2
e 36 47 7
e 36 48 5
e 36 50 1
e 36 53 10
e 36 55 2
e 36 70 7
e 36 94 4
e 37 47 5
e 37 49 9
e 37 52 7
e 37 54 8
e 37 57 6
e 37 70 1
e 37 94 10
e 38 47 5
e 38 48 7
e 38 52 4
e 38 53 10
e 38 57 8
e 38 70 7
e 38 94 5
e 39 47 7
e 39 50 4
e 39 51 7
e 39 55 10
e 39 56 10
e 39 70 3
e 39 94 6
e 40 47 10
e 40 49 9
e 40 51 1
e 40 58 7
e 40 70 7
e 40 94 9
e 41 47 3
e 41 48 6
e 41 50 6
e 41 58 10
e 41 70 4
e 41 94 10
e 42 47 8
e 42 49 6
e 42 52 2
e 42 58 2
e 42 70 2
e 42 94 6
e 43 47 9
e 43 48 4
e 43 52 8
e 43 58 10
e 43 70 5
e 43 94 7
e 44 47 8
e 44 50 4
e 44 51 9
e 44 58 6
e 44 70 9
e 44 94 3
e 45 47 9
e 45 53 1
e 45 54 8
e 45 55 5
e 45 56 6
e 45 57 2
e 45 70 3
e 45 94 5
e 46 47 9
e 46 59 3
e 46 60 4
e 46 61 4
e 46 62 3
e 46 63 6
e 46 64 9
e 46 65 1
e 46 66 8
e 46 67 2
e 46 68 8
e 46 69 8
e 46 94 5
e 47 71 6
e 47 72 5
e 47 73 4
e 47 74 6
e 47 75 3
e 47 76 4
e 47 77 10
e 47 78 6
e 47 79 6
e 47 80 7
e 47 81 3
e 47 82 7
e 47 83 8
e 47 84 10
e 47 85 2
e 47 86 5
e 47 87 4
e 47 88 8
e 47 89 3
e 47 90 6
e 47 91 8
e 47 92 4
e 47 93 3
e 48 95 8
e 49 95 4
e 50 95 1
e 51 95 3
e 52 95 10
e 53 95 6
e 54 95 7
e 55 95 6
e 56 95 1
e 57 95 10
e 58 95 5
e 59 95 6
e 60 95 5
e 61 95 8
e 62 95 4
e 63 95 9
e 64 95 4
e 65 95 6
e 66 95 5
e 67 95 7
e 68 95 8
e 69 95 9
e 70 95 7
e 71 95 2
e 72 95 3
e 73 95 6
e 74 95 1
e 75 95 6
e 76 95 2
e 77 95 10
e 78 95 2
e 79 95 7
e 80 95 4
e 81 95 5
e 82 95 8
e 83 95 6
e 84 95 6
e 85 95 6
e 86 95 4
e 87 95 6
e 88 95 6
e 89 95 6
e 90 95 6
e 91 95 5
e 92 95 10
e 93 95 9
e 94 95 3